h=7;
w=7;
left=[7, 8, 0, 0, 11, 0, 0];
right=[19, 17, 0, 11, 21, 13, 7];
top=[7, 0, 0, 0, 13, 0, 0];
down=[13, 0, 11, 16, 17, 12, 0];
b=[|0,3,0,0,0,0,0|0,0,2,0,0,0,0|0,0,0,0,0,0,0|0,0,0,0,2,0,0|0,0,0,6,0,2,3|0,0,0,0,0,0,0|0,0,0,0,0,0,0|]